85
MDStep49900000 without cholines
   C    14.33568319    15.55409998    13.87905231
   N    13.97450454    15.40552545    15.14412034
   N    14.83058961    16.73809327    13.54059065
   O    14.17936507    14.63371177    13.10340807
   H    13.69368334    14.54949737    15.48686362
   H    14.13436054    16.18085263    15.71367020
   H    14.97755808    16.92313330    12.61217829
   H    14.60439442    17.46253704    14.19114445
   C    15.38449379    18.59032998    16.61871144
   N    15.78518662    18.89636070    17.85976627
   N    16.12026879    19.12415685    15.63276029
   O    14.40715835    17.88604777    16.27993293
   H    16.68274347    19.28272867    18.02073460
   H    15.29636865    18.41382012    18.61346104
   H    15.96585781    18.97749508    14.66720896
   H    16.82840189    19.79669090    15.84295657
   C    11.34423382    18.02359009    13.79718013
   N    10.95451494    17.28600976    14.82310248
   N    12.28220663    18.98009670    14.12822701
   O    10.95144826    17.82713881    12.65450415
   H    10.31072788    16.54531157    14.65248609
   H    11.35234229    17.50686813    15.75248186
   H    12.44085486    19.03619420    15.12897816
   H    12.87847469    19.29330393    13.34339979
   C    16.39017635    14.77278724    10.16065347
   N    17.62241177    14.53363007     9.61869289
   N    16.10258993    13.83704102    11.14228998
   O    15.63922387    15.69262712     9.84739019
   H    18.19522026    13.74861573     9.95675584
   H    17.99959560    15.01761260     8.76221517
   H    16.62187805    13.03308813    11.23458219
   H    15.30679907    13.99467329    11.69169872
   C    13.42002386    16.20396752    19.32316811
   N    12.88946385    15.16696668    19.97337332
   N    12.93705050    16.24735123    18.02871262
   O    14.11804747    17.04966739    19.84362869
   H    13.07691938    15.00023154    20.96749536
   H    12.26376113    14.64796352    19.34371288
   H    13.32999233    17.02555783    17.53084474
   H    12.36357437    15.50977266    17.64950353
   C    15.91415050    11.40987038    14.16987424
   N    14.95721149    11.28931256    13.23721822
   N    16.01672544    12.57222041    14.88147576
   O    16.74804479    10.55564857    14.40187745
   H    14.81851444    10.38802421    12.78223334
   H    14.41846913    12.15331620    13.07118537
   H    15.27601371    13.22150476    14.71227781
   H    16.32439632    12.35860360    15.83120486
   C    11.22511411    13.42317917    11.62313061
   N    12.38112840    12.83537778    11.55267660
   N    11.17607034    14.37568337    12.57234348
   O    10.33284934    13.07229416    10.89351997
   H    13.12095397    13.22872232    12.04195446
   H    12.50693442    11.90556724    11.11074676
   H    10.29376108    14.80872164    12.78763865
   H    12.14469637    14.64827068    12.91427834
   C    11.60086975    19.40561024    17.81154118
   N    11.85463453    20.52678663    17.10444748
   N    12.25286864    19.34603164    18.99748094
   O    10.94220508    18.47433958    17.40235150
   H    12.40966492    21.31419153    17.43637297
   H    11.22978354    20.70017942    16.31056765
   H    11.92094400    18.51242679    19.47797016
   H    13.06019630    19.93324746    19.27843468
   C    12.86757154    11.45867054    15.97435462
   N    12.64815526    10.29268470    15.33490579
   N    13.05284726    11.33768656    17.31934639
   O    12.84054459    12.53753849    15.42415273
   H    12.67022945     9.45506040    15.86525622
   H    12.33193038    10.35952812    14.36184856
   H    13.10943005    10.41544756    17.75621065
   H    13.12335106    12.12365240    17.97932461
   C    10.02801798    14.41887831    17.62348988
   N    10.27626632    14.00732357    16.33747265
   N     8.96833021    15.29729463    17.79122479
   O    10.74062134    14.09449210    18.55170559
   H     9.78635428    14.36495628    15.50572315
   H    11.10422642    13.37550648    16.16336426
   H     8.40260302    15.69334187    17.07616951
   H     8.84631353    15.73900216    18.70526890
  Cl    15.26049541    20.01216237     8.47052189
  Cl    16.45789504    19.37842171    22.22014508
  Cl    13.15443460    12.41701710    22.08465957
  Cl    16.13042028    16.10599288    23.27788622
  Cl     6.82308363    12.70807710    16.34309532
