286
MDStep46680000 without ureas
   N    13.15548976    14.88963256    12.65307714
   C    13.55071068    13.62866074    13.30987610
   C    12.18494230    15.68070087    13.49396712
   C    12.53278769    14.48011136    11.30994737
   C    14.44453386    15.66811633    12.34708676
   H    14.50600309    13.29777232    12.98375516
   H    12.78150659    12.87367307    13.15392407
   H    13.56544930    13.94817863    14.40032415
   C    10.88137342    14.98148943    13.70355854
   H    11.98679817    16.66502371    13.05657362
   H    12.76853911    15.77477850    14.49068455
   H    13.30105535    14.01907504    10.72134054
   H    11.71676433    13.77290344    11.35191161
   H    12.17965437    15.42436411    10.86402248
   H    14.17465283    16.52638417    11.76483777
   H    14.93368996    15.95841142    13.26618134
   H    15.06920584    15.00352795    11.74633056
   H    10.42141444    14.82295901    12.77695732
   H    11.05594962    14.04474394    14.22294545
   O    10.08381519    15.79859982    14.58026182
   H    10.38177315    16.73183873    14.32441056
   N    15.23272221    15.89210018    18.15039130
   C    16.35406761    14.95485136    18.62874420
   C    14.79341840    15.29103773    16.80399534
   C    15.73968921    17.32233310    17.80968104
   C    14.04063072    15.90752021    19.16624864
   H    16.52451404    15.09108146    19.61729916
   H    16.07122541    13.92538678    18.42192554
   H    17.25155427    15.12029496    17.98972843
   H    15.59276870    15.37041013    16.07600847
   H    14.68937710    14.19452243    16.85461920
   H    13.89859379    15.80900830    16.39027023
   H    15.67846932    17.92814934    18.68936040
   H    16.76821486    17.36120277    17.48170079
   H    15.03036476    17.63267841    17.05582611
   C    13.53392667    14.53530856    19.77154275
   H    13.34670012    16.63830380    18.89398831
   H    14.60159506    16.34131079    20.03024118
   H    14.34011810    14.07510902    20.32778022
   H    12.65966154    14.73839062    20.42958567
   O    12.96158950    13.59267430    18.85074613
   H    13.68132320    12.92621868    18.59681773
   N    10.86837403    18.18083240    19.59268884
   C    10.59941886    16.76881352    19.19354712
   C    11.80572745    18.76212878    18.56266217
   C     9.61818569    19.06205911    19.67829879
   C    11.72252306    18.18928420    20.91665857
   H    10.19044874    16.76853929    18.21060775
   H     9.88674156    16.35220415    19.89324896
   H    11.56678042    16.27755847    19.06262496
   C    11.45975153    18.54602481    17.05862966
   H    11.79835140    19.77320434    18.73769224
   H    12.82636412    18.39103399    18.70022843
   H     9.95099601    20.02207442    20.02028642
   H     9.22134558    19.14747722    18.64589873
   H     8.91900838    18.57231357    20.40399645
   H    12.78496886    18.02830258    20.79192907
   H    11.31447465    17.36394924    21.53829814
   H    11.52949526    19.14096390    21.48161114
   H    11.46376769    17.47894061    16.87702034
   H    12.32567108    18.88406114    16.49788974
   O    10.35421896    19.21598812    16.48719378
   H    10.30053018    18.83473039    15.54346997
   N    13.33030422    18.14025884     9.02854516
   C    12.68943230    17.75996703     7.74337542
   C    14.60983927    17.38579383     9.30341752
   C    12.35850024    17.82789163    10.18938303
   C    13.54873882    19.68052295     8.92724400
   H    12.45852362    16.70314530     7.69857087
   H    13.35696875    18.05489699     6.91578379
   H    11.70934319    18.24069685     7.57532567
   H    14.39090593    16.33354266     9.15315049
   H    14.91585323    17.69194001    10.30187221
   H    15.42719247    17.73478730     8.58852989
   H    12.21510634    16.78375944    10.16462775
   H    12.83856905    18.06370740    11.13125631
   H    11.43299401    18.42414248    10.01368354
   C    14.18195962    20.40083813    10.11716104
   H    12.57752313    20.22269895     8.79620624
   H    14.16639022    19.89168995     7.97418219
   H    15.18854139    19.99032200    10.13405113
   H    14.25568204    21.46247569     9.69870545
   O    13.46222978    20.41010990    11.30312678
   H    12.90902173    21.30561978    11.25875080
   N    18.76908326    14.84402254    14.05652690
   C    18.14566664    15.49797682    15.22922973
   C    18.03493537    15.06795433    12.77310820
   C    20.22585968    15.14394546    13.87178024
   C    18.68089761    13.35400516    14.35624457
   H    18.09167812    16.51463020    14.98962635
   H    18.68944435    15.36060229    16.14061792
   H    17.13211530    15.08415197    15.29342224
   H    18.05960490    16.11520152    12.57878457
   H    18.54795611    14.67489004    11.92152147
   H    17.04958785    14.60481542    12.82862515
   C    20.57099763    16.61491769    13.79816797
   H    20.49659531    14.70596381    12.90201622
   H    20.80458135    14.56803326    14.61870807
   H    18.88069247    12.74373826    13.50215879
   H    19.38624572    13.00045924    15.15897157
   H    17.59635447    13.17305692    14.63615478
   H    21.30964038    16.88992470    14.55351981
   H    19.65753614    17.24413529    13.93455876
   O    20.95452896    16.89032069    12.41292713
   H    20.39457119    16.25556208    11.87661680
   N    12.61042188     9.72327479    14.37501517
   C    12.49280658    10.82049046    15.40800250
   C    11.33195065     8.84824116    14.32385266
   C    13.86843955     8.91813718    14.79610391
   C    12.70293050    10.34754031    12.93453340
   H    11.91818071    11.60088735    14.89904697
   H    11.97078955    10.35638188    16.31065854
   H    13.54946382    11.19127316    15.64583468
   C    10.86243653     8.09971632    15.61355126
   H    11.63073312     8.01171372    13.70023537
   H    10.53032323     9.32397955    13.75605776
   H    14.78151559     9.44489308    14.59555739
   H    13.72875819     8.59862320    15.83309645
   H    13.88130761     8.05024786    14.05970382
   H    13.44134295    11.14742594    12.83161668
   H    12.93734638     9.53816146    12.21811481
   H    11.69125655    10.75966732    12.72575884
   H    10.57201412     7.05441720    15.46346477
   H    11.65464897     8.05572755    16.39191646
   O     9.82442595     8.89711017    16.15882203
   H     9.10981439     8.81830789    15.50942712
   N    17.98906847    10.87376262    18.19466023
   C    18.81597336     9.70553108    18.61979225
   C    17.91110139    11.85025037    19.37031407
   C    18.77957819    11.68429934    17.10988956
   C    16.60868168    10.28306624    17.71980170
   H    19.71055163    10.07561592    19.09351153
   H    18.22361924     9.08049214    19.30953822
   H    19.16023082     9.13313199    17.73273312
   H    17.27153452    12.65362087    19.23526042
   H    17.55337597    11.19830208    20.12345512
   H    18.86499386    12.30963388    19.77895061
   H    19.82068791    11.78165305    17.43289041
   H    18.75959785    11.09276100    16.18826906
   H    18.36780903    12.66741442    16.83193217
   C    15.35383764    11.18130705    17.38798230
   H    16.34854502     9.42559790    18.33936545
   H    16.89891109     9.91009727    16.71118296
   H    15.63915607    11.79124279    16.54662533
   H    14.44936187    10.62019041    17.08548546
   O    15.01555503    11.98128542    18.55913438
   H    15.15553461    11.43621190    19.36031652
   N    11.59182653    11.07615337     8.35709288
   C    10.88137276    12.33262464     7.95670127
   C    11.21691307     9.93125868     7.40986843
   C    13.08497992    11.39708836     8.14507863
   C    11.40151053    10.76958861     9.86291380
   H     9.79151176    12.25381893     8.00821280
   H    11.13761612    12.65492883     6.93869963
   H    11.21927494    13.19164206     8.62065708
   H    11.55253938    10.16066283     6.41947638
   H    10.13541816     9.85230111     7.53542987
   H    11.63375754     8.98253823     7.84363297
   H    13.74658730    10.63124671     8.49661294
   H    13.19857095    11.66971354     7.11059220
   H    13.16719246    12.34284910     8.66685141
   C     9.99782754    10.33713748    10.34674974
   H    11.61894055    11.66122858    10.44520475
   H    12.07582573     9.94549982    10.11267754
   H    10.10244094    10.08755493    11.42772674
   H     9.73757455     9.39181732     9.70451769
   O     9.01933640    11.33611942    10.22385327
   H     8.86304307    11.65141599    11.18957445
   N    16.98319882    13.54663179     8.32691329
   C    16.07399964    13.40363809     7.13014133
   C    17.13045602    15.04447493     8.49999030
   C    16.28685160    12.99987226     9.57655039
   C    18.40833249    12.99997896     8.19640688
   H    15.97011970    12.37503099     6.79261736
   H    15.08888024    13.82638342     7.44467577
   H    16.55662584    14.07856692     6.34572600
   H    17.78175984    15.30644136     7.67040601
   H    17.64427693    15.20901442     9.46016186
   H    16.06142411    15.51887876     8.51191941
   H    15.42911255    13.57261166     9.84368652
   H    16.98674582    12.96940845    10.42179303
   H    15.98132526    11.90994727     9.48243723
   C    18.57698553    11.55705165     7.72766812
   H    18.86306633    13.14344635     9.16161186
   H    18.98313859    13.68543340     7.51025296
   H    17.87944068    10.93065411     8.32197986
   H    19.64711341    11.26859993     7.89058105
   O    18.21947552    11.34831911     6.41950194
   H    18.62508968    10.45226849     6.15002232
   N    18.74761921    20.71114160    19.34742309
   C    18.12641933    19.40282258    19.07794632
   C    19.97952360    20.88790537    18.43692549
   C    17.54334354    21.68277406    19.16969127
   C    19.32512777    20.74168985    20.79836725
   H    17.69863081    19.35088575    18.09780652
   H    17.31319967    19.29137703    19.78933694
   H    18.90342977    18.60464991    19.23575555
   H    20.13029991    21.94056971    18.23107088
   H    20.70009011    20.34247858    19.05901625
   H    19.84198020    20.35475395    17.44753871
   C    17.73409046    23.16579823    19.19247900
   H    16.94858726    21.27994866    19.94534280
   H    17.14374616    21.23435174    18.24651014
   H    18.62618523    20.82679344    21.60258869
   H    19.98900516    19.90465488    20.94950135
   H    19.93513664    21.67278894    20.80648627
   H    16.80816974    23.61409044    19.45413546
   H    18.44198918    23.47847142    20.00784178
   O    18.13368519    23.64730483    17.90148549
   H    18.51418415    24.56441051    18.07583155
   N     5.78641549    17.76222014    15.79167475
   C     4.83047642    18.32104445    14.84910762
   C     7.03839084    18.49821512    15.89079872
   C     5.21517676    18.00556614    17.14413314
   C     6.04774585    16.22928670    15.57271662
   C     3.39436382    17.71004173    14.78614105
   H     5.31940248    18.24548555    13.88117513
   H     4.74874737    19.40146069    15.06687205
   H     6.77905879    19.56897968    15.97887512
   H     7.45723211    18.13856488    16.85863846
   H     7.73052392    18.38209641    14.99540575
   H     5.05814681    19.09959016    17.32041910
   H     4.20473576    17.54728943    17.32440161
   H     5.89092967    17.59933312    17.98327454
   H     6.23796666    15.86151361    14.56686550
   H     6.99697425    16.06393143    16.10239582
   H     5.26137491    15.58291335    16.05957523
   H     2.81902471    18.44510324    14.19252016
   H     2.89890755    17.72184059    15.79991691
   O     3.32663503    16.45105854    14.14149548
   H     3.13250227    16.70124972    13.17292988
   N    20.90586430    15.08161131    19.80153087
   C    20.60909791    14.04255189    20.85835390
   C    19.63450159    15.85894111    19.48700370
   C    21.21070582    14.36720807    18.45434605
   C    22.07486502    15.99805962    20.35430765
   H    21.53613309    13.65453455    21.30239165
   H    19.98693756    14.53836336    21.62197509
   H    20.03607237    13.23825456    20.30802581
   H    19.35348287    16.48238264    20.25584662
   H    18.77848771    15.26608703    19.24444133
   H    19.86234254    16.56705017    18.61317750
   C    22.28415444    13.18789028    18.41856339
   H    20.24806506    14.00002049    18.08936640
   H    21.53603820    15.17887470    17.75935175
   H    21.72730946    16.43690272    21.27588459
   H    23.00619874    15.45668283    20.50272631
   H    22.12900777    16.77154364    19.58027419
   H    22.26317677    12.75178379    17.42970063
   H    22.04356191    12.39157381    19.13155899
   O    23.62001038    13.61819613    18.72101587
   H    23.92582605    14.32098305    18.04551844
   N     9.80660778    14.71500033    22.95754403
   C     9.53431519    15.96609503    23.65898371
   C     8.92970593    14.62250406    21.69976459
   C     9.62047233    13.59107691    24.00896071
   C    11.29902614    14.57699874    22.53528555
   H    10.14484874    15.99057187    24.57416342
   H     8.43516162    15.99729851    23.86856753
   H     9.82281678    16.83931027    22.99541786
   H     9.10222785    13.74555508    21.23487530
   H     8.91073097    15.53994408    21.09533490
   H     7.89873654    14.49950287    22.15541241
   C     9.63528856    12.17909262    23.46379831
   H    10.33133049    13.76952964    24.79689601
   H     8.62592038    13.76020369    24.45544600
   H    11.32236125    13.79214629    21.72248777
   H    11.53195418    15.50531756    21.92706969
   H    12.04693092    14.23960594    23.33462478
   H     8.97109325    12.11488088    22.63183301
   H    10.61534928    11.80893907    23.23791713
   O     9.21603826    11.40260081    24.51127978
   H     9.04972175    10.43549005    24.18684765
  Cl    14.67208673    18.57272221    14.21801214
  Cl    13.92462463    21.01757198    17.24352925
  Cl    18.26285663    17.99002184    10.30504243
  Cl    17.57207339    10.84422011    12.21845578
  Cl    15.95643051    18.00597244    21.63137029
  Cl    14.98889710     8.92169781    10.69728140
  Cl    15.10574765    13.03366745    22.70570147
  Cl    17.29457926     7.93340788    15.02882115
  Cl    22.00187834    18.41730850    17.29894505
  Cl    17.93315828    15.15235874    23.01840107
  Cl    21.24071690     9.89971391    16.03593208
  Cl    19.57491027     8.15068840    12.12688878
  Cl    18.37295334    11.09269950    22.76413548
