220
MDStep55860000 without ureas
   N    13.86164432    12.36416524    17.86735147
   C    14.84762647    12.69236678    18.94715775
   C    13.27314409    11.02589307    18.21091331
   C    14.48768170    12.21210045    16.48722777
   C    12.81400855    13.52367040    17.75699147
   H    15.21401252    13.65306159    18.89440308
   H    15.58744860    11.94231654    18.95631527
   H    14.28586284    12.62109718    19.91904181
   H    13.06008169    10.98352746    19.25299144
   H    12.39092278    10.92897440    17.54366135
   H    13.99222675    10.18041772    18.06132726
   H    14.87126297    11.28095428    16.35110320
   H    15.22014918    12.96235799    16.30937673
   H    13.70882225    12.39477145    15.75786559
   C    12.01393294    13.90001501    18.99083193
   H    13.30008351    14.45598621    17.36552766
   H    12.10629800    13.23912315    16.91374951
   H    11.22749794    14.55271350    18.62565723
   H    11.54182397    13.00070653    19.43471374
   O    12.85860444    14.69837785    19.78545221
   H    13.36807980    15.26711348    19.20934247
   N    16.03104747    10.80057806     9.80125424
   C    15.15295361     9.80361177     9.07817793
   C    15.76598585    12.17180480     9.18555017
   C    15.63735576    10.69152904    11.28826973
   C    17.54531744    10.49359110     9.66877175
   H    14.13062465     9.98924786     9.31410497
   H    15.40152077     9.81955797     8.04170912
   H    15.46787371     8.82497113     9.48716644
   H    14.72492943    12.39572046     9.32310245
   H    16.05056980    11.98897960     8.12864974
   H    16.30898962    13.01295128     9.67638218
   C    16.56886293    11.33506364    12.36660981
   H    14.65231977    11.08354642    11.43004111
   H    15.59857200     9.59448065    11.44857230
   H    17.82934367    10.76804697     8.67919686
   H    17.73214553     9.43108678     9.88319311
   H    18.19545856    11.06908075    10.34466824
   H    17.52792728    10.88449728    12.33903484
   H    16.20191668    11.08993019    13.38550433
   O    16.67194856    12.78967194    12.24353772
   H    17.44934634    13.00748346    11.64006195
   N    20.13432635    14.35788534     9.69004328
   C    21.17200221    15.40980368     9.40390449
   C    19.09216280    14.19420376     8.58555613
   C    20.89963367    13.01777994     9.67469975
   C    19.40870402    14.52476008    11.04556920
   H    20.57553424    16.33283894     9.47108776
   H    21.91341995    15.36796110    10.25200095
   H    21.72386831    15.12765197     8.44240576
   H    19.51853439    13.91768930     7.62386640
   H    18.54670210    15.15749941     8.51600089
   H    18.39800879    13.39078631     8.95181983
   H    20.21686089    12.20399355     9.90999094
   H    21.70843011    13.02936760    10.41652579
   H    21.16643510    13.01593310     8.60650391
   C    18.79762523    15.90002093    11.41005073
   H    20.03690906    14.29596328    11.85725908
   H    18.67321329    13.76010304    10.92597118
   H    17.98691734    15.74382547    12.10768990
   H    18.45487430    16.36116378    10.41834209
   O    19.81069709    16.72293940    12.01052761
   H    20.37679187    16.07531976    12.33448210
   N    19.36167898    12.74593168    20.27389832
   C    19.27215337    11.50228447    19.44950263
   C    20.82476363    13.05098969    20.43083401
   C    18.75028354    12.60143095    21.72011219
   C    18.58437236    13.96824780    19.59237743
   H    18.20258309    11.35446209    19.23819643
   H    19.65216381    10.65648643    20.06248724
   H    19.84556319    11.58661188    18.47878171
   H    21.31150815    13.41544091    19.54270908
   H    20.79091559    13.73055534    21.31395085
   H    21.42848736    12.08186081    20.67983250
   H    17.67528366    12.35623200    21.61768182
   H    19.31311373    11.69458660    22.02158523
   H    18.95688582    13.49723360    22.43805726
   C    18.83328021    14.33306970    18.08291133
   H    18.72774603    14.87343189    20.17060595
   H    17.49165027    13.71631844    19.60394980
   H    18.71145786    15.37363728    17.94875751
   H    19.86048482    14.10601677    17.74551908
   O    17.72255083    13.73649975    17.35953800
   H    18.00616177    12.94818079    16.78407815
   N    17.83668967    20.55674977    17.96637875
   C    16.41716443    20.12427228    18.33609950
   C    17.89418905    21.97939021    17.39212793
   C    18.50462167    19.58451772    16.98070044
   C    18.78037105    20.70146339    19.21070014
   H    15.77541379    20.34680989    17.49469153
   H    16.47540554    19.06451730    18.61804249
   H    16.07855404    20.76876151    19.17205284
   C    16.90004162    22.48965046    16.39117040
   H    17.79667614    22.67278411    18.19410146
   H    18.84594868    22.06112189    16.87736171
   H    17.78614616    19.51355212    16.18134126
   H    19.45151060    20.10253762    16.76442185
   H    18.56223524    18.58836216    17.47656404
   H    18.71170539    19.83936637    19.81835992
   H    19.77226848    20.73990517    18.84419058
   H    18.59966446    21.62299901    19.73180449
   H    16.02365210    21.85178181    16.39888939
   H    16.69675536    23.58807010    16.67092851
   O    17.38857858    22.55410409    15.05157015
   H    17.32826288    21.63877869    14.70919376
   N     8.60043366    10.96354393    16.63818557
   C     7.27661109    11.27276013    16.06663793
   C     8.56949151    10.59538279    18.11648099
   C     9.48826361    12.20217224    16.44271335
   C     9.25255718     9.80983061    15.85346512
   C     7.20646691    11.58456719    14.52419564
   H     6.61580284    10.46956668    16.32181113
   H     6.95237291    12.14688784    16.64764046
   H     8.23277090    11.38689353    18.75707750
   H     8.11130977     9.62440222    18.23813005
   H     9.63083045    10.46985421    18.36141051
   H     9.52719868    12.44349593    15.46294204
   H     8.98080168    13.01405150    16.99324527
   H    10.50313531    12.04352661    16.86968312
   H     8.61865355     8.98998014    15.75770256
   H     9.45825168    10.07636239    14.85448102
   H    10.21278167     9.54047243    16.33100584
   H     8.23370547    11.65079432    14.06580120
   H     6.67634925    12.57337077    14.35609183
   O     6.57900559    10.49164782    13.88736398
   H     6.97977114     9.63477906    14.18341191
   N    12.15160631     6.81606829    18.11651868
   C    12.92879406     5.55373761    18.26515683
   C    12.50640894     7.69996884    19.27254479
   C    12.26296969     7.46468855    16.76197628
   C    10.68625421     6.41322268    18.19013026
   H    13.94765118     5.82279666    18.26129324
   H    12.67100897     4.77804706    17.58111896
   H    12.64191336     5.15447559    19.23931708
   H    11.85871050     7.40894427    20.07284834
   H    13.58450099     7.57226833    19.46703610
   H    12.28953828     8.83448792    19.13041458
   C    13.66445723     7.56884870    16.17285365
   H    11.76886219     8.42153909    16.64796387
   H    11.73840340     6.68617313    16.15893434
   H     9.98699580     7.19571841    18.41829846
   H    10.54952768     5.92011331    17.23867447
   H    10.59802001     5.54844264    18.86437736
   H    14.21695934     6.69679673    16.01603881
   H    13.55039565     7.91874755    15.11715973
   O    14.56103446     8.46994487    16.80357773
   H    14.98374056     7.90000422    17.45156879
   N     8.26997174    20.65841372    16.21664104
   C     9.32156906    20.42916543    15.18258943
   C     8.80248756    21.45107060    17.41892788
   C     7.06412083    21.35502532    15.56969505
   C     7.84038918    19.28070633    16.76940191
   H     8.90620467    20.15677529    14.22389948
   H     9.80696915    21.40696552    15.09479446
   H    10.02300816    19.63131279    15.46785062
   H     9.17332773    22.37935189    17.11382975
   H     8.01540850    21.57344387    18.13162277
   H     9.59699189    20.77095779    17.73512549
   C     7.31340845    22.75654210    15.00641295
   H     6.39041666    21.41539817    16.40401053
   H     6.57016552    20.76526096    14.74838413
   H     7.09162473    19.50052496    17.49161685
   H     7.41549095    18.71441251    15.95554978
   H     8.63714985    18.70228779    17.23998542
   H     7.07187665    22.82054177    13.95897885
   H     8.35154831    23.05905997    15.12708335
   O     6.60918410    23.68579164    15.84739229
   H     5.67885604    23.26672367    15.96801462
   N    15.90107758    14.62660908     4.51375287
   C    16.20650566    13.71087109     5.61054282
   C    16.23409096    14.01946074     3.20255956
   C    16.73613146    15.88744684     4.61425374
   C    14.37282759    15.00004477     4.41239577
   H    16.01120513    12.71472044     5.20801413
   H    15.58741531    14.06111420     6.47105857
   H    17.28270965    13.90055207     5.86184672
   H    15.57651591    13.17300739     3.09062818
   H    17.24479740    13.64054666     3.18440974
   H    16.09131647    14.67324040     2.32291215
   H    16.61128289    16.43492970     5.55212806
   H    17.81828171    15.55600800     4.72967930
   H    16.59295124    16.52962140     3.65116340
   C    13.60471472    15.70148931     5.55379670
   H    14.21743509    15.67025687     3.56551716
   H    13.71832582    14.09257601     4.19556955
   H    14.15915409    16.56542022     5.97022263
   H    12.64883339    16.19118203     5.25770618
   O    13.32801020    14.72807051     6.58039160
   H    12.83679751    15.17333370     7.32050136
   N     9.57725783    19.53838234    22.10030595
   C     9.72128929    19.85451793    20.65644051
   C    10.91538200    19.55183151    22.78233499
   C     9.11561383    18.10653157    22.32043285
   C     8.48381522    20.45094728    22.63397756
   C    10.77379447    19.05660671    19.79459747
   H     9.94347749    20.89797364    20.69318448
   H     8.74957221    19.64548294    20.22572913
   H    11.29710015    20.54894995    22.69972870
   H    11.53508909    18.75939470    22.32985608
   H    10.81354823    19.32484170    23.85885918
   H     8.21797685    17.87529060    21.72967310
   H     9.98762007    17.51874297    21.95409001
   H     8.86661620    17.85582992    23.39483176
   H     8.87164986    21.42879821    22.61558412
   H     7.60438818    20.37023988    22.02534587
   H     8.39435476    20.13902530    23.71997433
   H    11.11444841    19.59418689    18.96216326
   H    11.68021387    18.71146207    20.30456163
   O     9.99189813    17.95070540    19.29389355
   H    10.55938834    17.46948462    18.61087907
  Cl    13.43219338    20.53952124    16.60714911
  Cl    13.65487392    17.29108380    21.28808325
  Cl    16.65872983    17.38531649    20.88493367
  Cl     8.71441140    14.25907670    20.13068970
  Cl    14.84508894    19.48722845     6.58061098
  Cl    20.65380306    17.92573648    20.27442207
  Cl    10.30617554    11.90297117    21.95241900
  Cl    16.38449434    10.41015865    21.97678975
  Cl    15.35975447    20.07351852    23.06511264
  Cl    14.66901569    13.17062305    24.13588073
