190
MDStep49900000 6/6 motifs
   C    14.33568319    15.55409998    13.87905231
   N    13.97450454    15.40552545    15.14412034
   N    14.83058961    16.73809327    13.54059065
   O    14.17936507    14.63371177    13.10340807
   H    13.69368334    14.54949737    15.48686362
   H    14.13436054    16.18085263    15.71367020
   H    14.97755808    16.92313330    12.61217829
   H    14.60439442    17.46253704    14.19114445
   C    15.38449379    18.59032998    16.61871144
   N    15.78518662    18.89636070    17.85976627
   N    16.12026879    19.12415685    15.63276029
   O    14.40715835    17.88604777    16.27993293
   H    16.68274347    19.28272867    18.02073460
   H    15.29636865    18.41382012    18.61346104
   H    15.96585781    18.97749508    14.66720896
   H    16.82840189    19.79669090    15.84295657
   C    11.34423382    18.02359009    13.79718013
   N    10.95451494    17.28600976    14.82310248
   N    12.28220663    18.98009670    14.12822701
   O    10.95144826    17.82713881    12.65450415
   H    10.31072788    16.54531157    14.65248609
   H    11.35234229    17.50686813    15.75248186
   H    12.44085486    19.03619420    15.12897816
   H    12.87847469    19.29330393    13.34339979
   C    16.39017635    14.77278724    10.16065347
   N    17.62241177    14.53363007     9.61869289
   N    16.10258993    13.83704102    11.14228998
   O    15.63922387    15.69262712     9.84739019
   H    18.19522026    13.74861573     9.95675584
   H    17.99959560    15.01761260     8.76221517
   H    16.62187805    13.03308813    11.23458219
   H    15.30679907    13.99467329    11.69169872
   C    13.42002386    16.20396752    19.32316811
   N    12.88946385    15.16696668    19.97337332
   N    12.93705050    16.24735123    18.02871262
   O    14.11804747    17.04966739    19.84362869
   H    13.07691938    15.00023154    20.96749536
   H    12.26376113    14.64796352    19.34371288
   H    13.32999233    17.02555783    17.53084474
   H    12.36357437    15.50977266    17.64950353
   C    15.91415050    11.40987038    14.16987424
   N    14.95721149    11.28931256    13.23721822
   N    16.01672544    12.57222041    14.88147576
   O    16.74804479    10.55564857    14.40187745
   H    14.81851444    10.38802421    12.78223334
   H    14.41846913    12.15331620    13.07118537
   H    15.27601371    13.22150476    14.71227781
   H    16.32439632    12.35860360    15.83120486
   C    11.22511411    13.42317917    11.62313061
   N    12.38112840    12.83537778    11.55267660
   N    11.17607034    14.37568337    12.57234348
   O    10.33284934    13.07229416    10.89351997
   H    13.12095397    13.22872232    12.04195446
   H    12.50693442    11.90556724    11.11074676
   H    10.29376108    14.80872164    12.78763865
   H    12.14469637    14.64827068    12.91427834
   C    11.60086975    19.40561024    17.81154118
   N    11.85463453    20.52678663    17.10444748
   N    12.25286864    19.34603164    18.99748094
   O    10.94220508    18.47433958    17.40235150
   H    12.40966492    21.31419153    17.43637297
   H    11.22978354    20.70017942    16.31056765
   H    11.92094400    18.51242679    19.47797016
   H    13.06019630    19.93324746    19.27843468
   C    12.86757154    11.45867054    15.97435462
   N    12.64815526    10.29268470    15.33490579
   N    13.05284726    11.33768656    17.31934639
   O    12.84054459    12.53753849    15.42415273
   H    12.67022945     9.45506040    15.86525622
   H    12.33193038    10.35952812    14.36184856
   H    13.10943005    10.41544756    17.75621065
   H    13.12335106    12.12365240    17.97932461
   C    10.02801798    14.41887831    17.62348988
   N    10.27626632    14.00732357    16.33747265
   N     8.96833021    15.29729463    17.79122479
   O    10.74062134    14.09449210    18.55170559
   H     9.78635428    14.36495628    15.50572315
   H    11.10422642    13.37550648    16.16336426
   H     8.40260302    15.69334187    17.07616951
   H     8.84631353    15.73900216    18.70526890
   N    18.78365324    19.83542501    12.18482894
   C    18.96245904    20.81962388    13.21336538
   C    20.07370161    19.13171337    11.87538336
   C    18.18117350    20.57409418    10.98221038
   C    17.75882074    18.82971465    12.85088959
   H    19.21008907    20.27982670    14.13101570
   H    17.96946205    21.28203085    13.38312181
   H    19.66367897    21.64274166    12.93708785
   H    20.75156593    19.77281389    11.36580849
   H    20.54512473    18.86511654    12.81467969
   H    19.85178500    18.29095998    11.20776815
   H    18.06285209    19.79370060    10.29818107
   H    18.92466884    21.32007024    10.62490124
   H    17.20797716    21.05395420    11.24053495
   C    17.35491733    17.71140475    11.89916289
   H    18.28176359    18.41909965    13.68244257
   H    16.81093489    19.26904541    13.19984444
   H    17.02915376    16.78281572    12.37208235
   H    18.13676561    17.30731672    11.25275785
   O    16.33440298    18.10777628    10.93389719
   H    16.15648853    17.20503917    10.46834255
   N    16.86265887    13.65504747    18.71358133
   C    17.44166040    12.91745286    19.85855844
   C    15.52899317    13.10725407    18.34385452
   C    17.77049296    13.43318016    17.55364421
   C    16.62202535    15.13985081    19.14874832
   H    18.16183055    13.48175823    20.30908297
   H    16.71207442    12.64608523    20.60679692
   H    17.86540523    11.93995910    19.46339148
   H    15.53523539    12.11204641    18.04269970
   H    15.20401168    13.77953494    17.51727402
   H    14.75298577    13.25260320    19.18451577
   H    18.76787777    13.73050393    17.77868419
   H    17.44278024    14.04995026    16.74121014
   H    17.70140536    12.32425042    17.28787233
   C    17.83049745    15.91149665    19.60201049
   H    16.25835402    15.64699557    18.30813889
   H    15.75770391    15.15486556    19.84033752
   H    18.24001882    15.61044043    20.50389347
   H    18.52184686    15.90609206    18.77793272
   O    17.40642510    17.22032091    19.90606464
   H    16.57345259    17.05136831    20.39873392
   N    12.78669161    22.55473457    12.62842174
   C    13.12744416    23.42890202    11.48228802
   C    13.99899741    21.86606083    13.20714167
   C    12.18798645    23.58392912    13.59493306
   C    11.71189236    21.53571235    12.21093728
   H    12.38798133    24.15340356    11.11984038
   H    14.03899068    24.03601570    11.74192563
   H    13.38061310    22.76707880    10.60519982
   C    14.80359591    21.01656957    12.20369882
   H    13.57898895    21.18950411    14.00459964
   H    14.78416733    22.55656781    13.65455356
   H    11.52308507    24.21923617    13.07780674
   H    11.62475867    23.18617020    14.45063360
   H    13.03050786    24.17289628    13.98947224
   H    12.11536958    20.72438609    11.62177695
   H    11.33535487    21.16529427    13.15825594
   H    10.87974971    21.99556440    11.64414594
   H    14.70549995    21.38202420    11.18986932
   H    15.85244743    21.10507693    12.51178063
   O    14.45098043    19.64774317    12.29147463
   H    15.19879558    19.13098636    11.90803710
   N    19.61268220    15.50528598    14.96581681
   C    18.99063330    14.45298003    14.09732449
   C    18.38863121    16.22550884    15.50825394
   C    20.35670273    16.48097111    14.06509161
   C    20.66956380    14.96265751    15.98792153
   H    18.48197235    13.65121724    14.61620800
   H    18.34933690    14.96316655    13.38551341
   H    19.82717331    13.94150661    13.55948603
   H    17.88649792    15.51079286    16.08567450
   H    18.86614016    17.02004891    16.06070846
   H    17.89603269    16.70063444    14.63281136
   H    21.13291422    15.96495779    13.52032154
   H    20.86923579    17.24940117    14.67240523
   H    19.62084568    17.00945528    13.41093944
   C    21.80057285    14.07969627    15.44599728
   H    20.05383334    14.44269196    16.70095326
   H    21.11164326    15.84342392    16.44339538
   H    21.45929963    13.65551139    14.56640673
   H    22.66482386    14.80908320    15.25938182
   O    22.11978397    13.17350172    16.49770492
   H    22.45301946    13.65121034    17.30495980
   N    11.86348759    17.88908502     8.21898923
   C    11.59377497    18.99462917     7.26009246
   C    12.27320215    18.39978620     9.61585048
   C    10.53680861    17.09408586     8.32929325
   C    13.02372954    16.99905941     7.65419190
   H    10.73021616    19.49839345     7.64908191
   H    12.48275653    19.64069606     7.26386446
   H    11.20633048    18.60129549     6.27765636
   H    12.64712569    17.57605383    10.20551043
   H    11.45267937    18.88751140    10.15895937
   H    13.17776469    19.08028086     9.52058472
   C    10.38245642    16.13044030     9.56757220
   H     9.73234771    17.73755825     8.21767743
   H    10.54083761    16.47207730     7.40902163
   H    13.36291541    16.57719913     8.55222965
   H    13.70444855    17.77687071     7.25844042
   H    12.47679486    16.32562860     6.94166981
   H     9.91671373    15.18330475     9.24216583
   H    11.40696282    15.67669769     9.84085566
   O     9.71691474    16.57103447    10.71441571
   H    10.32711930    17.14262287    11.27459912
  Cl    15.26049541    20.01216237     8.47052189
  Cl    16.45789504    19.37842171    22.22014508
  Cl    13.15443460    12.41701710    22.08465957
  Cl    16.13042028    16.10599288    23.27788622
  Cl     6.82308363    12.70807710    16.34309532
