221
MDStep46680000 without cholines
   C     9.88326959    18.71728996    13.08528761
   N    10.33261292    19.49326210    12.11339242
   N     8.55814725    18.44263944    12.94042897
   O    10.63314715    18.27846214    13.94204949
   H     9.76361443    19.91745026    11.41409944
   H    11.31524530    19.79429446    12.12861376
   H     8.17316442    18.73336718    12.04628137
   H     8.06087378    17.84799818    13.65124249
   C     9.51911538    13.57985965    17.67066408
   N    10.45932724    14.42567165    17.14546802
   N    10.10483623    12.82811679    18.67660239
   O     8.40018507    13.59947057    17.26324528
   H    11.37841420    14.28653112    17.44968914
   H    10.21722340    15.08195619    16.36019540
   H    11.08717314    12.88515929    18.83711438
   H     9.66322827    12.00983077    19.07124472
   C     8.53965293    12.22170109    13.85538854
   N     9.05626773    11.37388930    14.74162987
   N     8.03131441    13.36733733    14.35074588
   O     8.54975202    11.97741263    12.64633858
   H     9.22907456    11.77601107    15.64039956
   H     9.54953944    10.53039438    14.39322745
   H     8.01423972    13.56958639    15.32720445
   H     7.59258446    14.02203937    13.63380758
   C     9.03290748    15.36084637     9.58659308
   N     8.54131146    16.49397813    10.08204399
   N     8.61898367    14.20850313    10.16310353
   O     9.58263506    15.35415121     8.55027608
   H     8.87189545    17.36873109     9.71330992
   H     7.92656263    16.37809773    10.89153000
   H     8.27063853    14.33754713    11.09772332
   H     9.01803732    13.35210564     9.75021742
   C    10.23519868    22.48367869    14.76424977
   N    11.35019447    21.75249981    14.66630638
   N     9.27154421    21.88159582    15.47046408
   O    10.07925567    23.58613017    14.28015465
   H    11.41309819    20.90805780    15.14471733
   H    12.02072717    22.18346981    13.98442847
   H     9.44188495    21.02994224    15.91001623
   H     8.49665262    22.43837042    15.71749073
   C    14.35364233    23.57382596    13.79120769
   N    14.70467300    22.40067069    13.28666636
   N    13.19542933    24.09854496    13.38573300
   O    15.06203729    24.19553633    14.55631573
   H    15.60952763    22.04769495    13.59113673
   H    14.27771646    22.15883497    12.34833304
   H    12.89285589    24.97585882    13.71982971
   H    12.71121065    23.72401325    12.56346405
   C    18.11350814    22.23380700    14.76691180
   N    18.33831608    23.45473153    15.04404999
   N    18.17115751    21.34569043    15.84040743
   O    17.92770294    21.84830301    13.61497074
   H    18.27016495    23.88382325    15.95989334
   H    18.28056123    24.11311562    14.25057111
   H    18.29736917    20.39510177    15.62086185
   H    18.31664048    21.77494553    16.75328385
   C    17.11682242    22.06494043    10.01347190
   N    16.68285792    23.04341404    10.80371507
   N    17.77723966    21.14606893    10.75976624
   O    17.05120494    21.98903689     8.82845931
   H    16.17996107    23.71759745    10.32885289
   H    16.95864410    23.01390527    11.80548057
   H    18.22188384    20.42404026    10.25533985
   H    17.55053540    21.18662892    11.78482159
   C    13.05485955    10.32752425    20.63870959
   N    12.34192628     9.24231332    20.21783242
   N    12.21727910    11.44786424    20.75839444
   O    14.24039176    10.32919608    20.71024493
   H    12.88853057     8.40725317    20.12340843
   H    11.33727813     9.35525469    20.14314623
   H    11.25758354    11.34746311    20.79823889
   H    12.66366570    12.32843850    20.90073520
   C    10.81615626    22.83296050    10.65668924
   N     9.65160424    22.88666502    11.31030665
   N    10.61532153    23.27337235     9.38317285
   O    11.82214970    22.43719343    11.09454772
   H     9.72967537    22.70338022    12.28007007
   H     8.88780393    23.41919770    10.94881571
   H    11.40961304    23.56143141     8.88206149
   H     9.69451364    23.45219425     8.98790819
   C     8.67012133    20.21650611     9.13807893
   N     7.85214072    21.21136319     9.35904018
   N     9.63627916    20.55160406     8.29727140
   O     8.63681931    19.22831588     9.77915832
   H     7.90701784    21.92021569     8.67739602
   H     7.25974536    21.29694568    10.14881399
   H     9.64776629    21.39288012     7.85221861
   H    10.41057444    19.85994635     8.17552640
   C     5.78677470    13.91503181    12.03712313
   N     5.88734775    12.96769405    11.11889729
   N     4.60341117    13.75843591    12.66694845
   O     6.66178384    14.75421022    12.30798095
   H     6.75917390    12.80664479    10.72566025
   H     5.13802640    12.23670630    11.13427101
   H     3.95175164    13.05091499    12.35230943
   H     4.18976708    14.54854404    13.25437288
   C    21.18852727    20.32863182    13.88939714
   N    20.13589185    19.89335130    13.20118624
   N    22.26607912    19.49784212    13.93146755
   O    21.17636391    21.30730100    14.57839948
   H    20.22228513    19.05642214    12.63116436
   H    19.26659811    20.44160056    13.27251445
   H    22.14618310    18.65337046    13.49017617
   H    23.08211999    19.63921812    14.55681623
   C    21.05078797    14.28125145    10.20881297
   N    21.91511378    14.24654706     9.20042674
   N    21.05687722    13.14300011    10.90978324
   O    20.31719943    15.19668482    10.42033162
   H    22.13360615    15.16708664     8.79981086
   H    22.58523468    13.43695290     9.06453969
   H    21.67036144    12.37928555    10.64912346
   H    20.59957814    13.30959411    11.81665832
   C     6.18533987    14.62753878    19.63680879
   N     5.95527749    13.58351140    18.87351708
   N     6.91562816    15.50146137    18.94046131
   O     5.74677272    14.81323866    20.76951677
   H     6.45706978    13.55570366    17.99210098
   H     5.36114577    12.74972917    19.16423016
   H     7.00156960    16.44062032    19.28604971
   H     7.43214171    15.08702233    18.13408585
   C     6.39333431    21.71117364    12.67896183
   N     6.39230937    21.17700310    13.93111743
   N     6.44856333    23.07718607    12.65444444
   O     6.24635311    21.00362038    11.75956913
   H     6.60729789    20.22835263    13.88341359
   H     6.51657066    21.71278266    14.79409590
   H     6.54593385    23.65428840    13.44231839
   H     6.60854373    23.42882277    11.71007608
   C     8.35432755    10.01275257    19.77810071
   N     7.26180175    10.37593699    20.46423780
   N     7.99390074     9.49005571    18.57186163
   O     9.48081081    10.12803257    20.25130405
   H     6.34307965    10.40912472    19.96488142
   H     7.48278207    10.68999571    21.43969777
   H     7.03783095     9.47894225    18.29659516
   H     8.66821423     9.40780219    17.81852536
   C     4.43280846    18.06345774    11.54875423
   N     4.07004903    19.34158694    11.47582947
   N     5.76511697    17.91803549    11.75428994
   O     3.67904352    17.13121783    11.48370549
   H     4.78863962    20.00502351    11.26580107
   H     3.05326800    19.62730856    11.29561371
   H     6.32400681    18.71605227    11.93028954
   H     6.12702471    16.95404379    11.88095065
   C     5.31758412    10.54654830    14.32953136
   N     6.24019091    10.22384087    15.24862018
   N     5.72527484    10.18913932    13.06767448
   O     4.21581565    11.01320871    14.54858567
   H     6.18415097    10.55376790    16.19147815
   H     7.08829287     9.85120341    14.80429544
   H     5.11704686    10.33364314    12.29045721
   H     6.71283242     9.96851846    12.98059779
   C     8.03739565     7.74406041    12.97973796
   N     7.70910507     6.43501757    13.17821280
   N     8.05003551     8.08822259    11.62741460
   O     8.23913184     8.51297952    13.86714473
   H     7.61839233     6.09087334    14.10683088
   H     7.46759291     5.80983960    12.37599001
   H     8.36005557     9.07652463    11.40933877
   H     8.01082532     7.29509123    10.90217938
   C    20.54343238    19.96441730     8.01379097
   N    20.25175312    21.28619009     8.28269155
   N    21.74293617    19.59128113     8.61422014
   O    19.83769346    19.23301735     7.39489134
   H    20.92921037    21.77876027     8.83100743
   H    19.37210410    21.64262764     7.91084452
   H    22.27956218    20.17132188     9.17680251
   H    22.07989075    18.65906861     8.34333060
   C     8.80518071    16.80278532     5.36688556
   N     8.65153517    17.33444692     6.55139306
   N     9.26444930    15.56760057     5.41590920
   O     8.47097032    17.43021725     4.36623369
   H     8.29692183    18.27489258     6.58747559
   H     8.78787164    16.78835618     7.39320978
   H     9.52725355    15.15428565     6.26612044
   H     9.32954742    15.05086860     4.53183379
   C    15.62591600    25.92857107    17.42161373
   N    14.60270661    25.08376883    17.36018339
   N    16.44193325    25.92235047    16.36143427
   O    15.80570124    26.66044432    18.37281213
   H    13.85306068    25.13257623    18.02064736
   H    14.57122920    24.42749981    16.56598819
   H    17.25387878    26.52365353    16.39049725
   H    16.23523991    25.14177952    15.72459157
   C    24.48777734    15.37810090    15.62093160
   N    25.20005898    14.82374016    14.66717949
   N    23.46279444    16.24096458    15.28857709
   O    24.62153167    15.02125247    16.75114639
   H    25.80766391    14.13615580    15.03977487
   H    25.05524807    15.02492591    13.69241850
   H    22.87375771    16.58085734    16.04710323
   H    23.42076282    16.64629802    14.34985016
   C    20.00288598    24.61416391    12.11968416
   N    20.06482247    23.26783508    12.20055639
   N    20.88561142    25.16459922    11.20015625
   O    19.22363991    25.29644705    12.80555568
   H    20.62710173    22.67705042    11.63283215
   H    19.52046032    22.71915834    12.85933717
   H    21.51061765    24.50316510    10.74291371
   H    20.81009949    26.20594403    11.12195367
   C    24.86837413    16.94971770    11.37984638
   N    25.87220013    17.79359886    11.08363100
   N    23.73254028    17.17673183    10.67523327
   O    25.05862603    15.93646976    12.03377557
   H    26.65766330    17.67000674    11.64727972
   H    25.67673900    18.62063879    10.50085856
   H    23.02069904    16.51682183    10.68961812
   H    23.66893618    17.98070381    10.02938384
  Cl    14.67208673    18.57272221    14.21801214
  Cl    13.92462463    21.01757198    17.24352925
  Cl    18.26285663    17.99002184    10.30504243
  Cl    17.57207339    10.84422011    12.21845578
  Cl    15.95643051    18.00597244    21.63137029
  Cl    14.98889710     8.92169781    10.69728140
  Cl    15.10574765    13.03366745    22.70570147
  Cl    17.29457926     7.93340788    15.02882115
  Cl    22.00187834    18.41730850    17.29894505
  Cl    17.93315828    15.15235874    23.01840107
  Cl    21.24071690     9.89971391    16.03593208
  Cl    19.57491027     8.15068840    12.12688878
  Cl    18.37295334    11.09269950    22.76413548
