170
MDStep55860000 without cholines
   C    15.78969796    15.62263211    14.13731715
   N    16.62525899    14.70710179    14.62962789
   N    15.54377738    15.45210934    12.81997409
   O    15.42016513    16.57827880    14.75184164
   H    16.82762982    14.65028898    15.59791648
   H    16.72989809    13.85844136    14.10306349
   H    15.67746162    14.55475097    12.41601239
   H    14.83041982    16.06772215    12.47973531
   C    12.43952606    17.00478094    16.61583675
   N    12.32369513    16.85059869    15.33490686
   N    13.69305276    17.15971364    17.06236457
   O    11.48155959    17.02420868    17.37443690
   H    11.47373216    16.44486455    15.11793276
   H    12.99424130    17.06366152    14.57388873
   H    14.35079780    17.19037486    16.28989789
   H    13.82093147    17.43176525    18.05816305
   C    11.52260769    13.79020351    11.44027168
   N    11.79444349    14.96427217    11.99789882
   N    12.23076952    13.66076565    10.29835841
   O    10.82403385    12.99969857    11.97983773
   H    11.32110173    15.20157353    12.80800416
   H    12.45677418    15.56581038    11.58801789
   H    12.15453852    12.90459593     9.70568548
   H    12.84208373    14.39052005    10.12373630
   C    12.09487568    18.66350355    12.56959655
   N    10.85056017    18.30654019    12.92094515
   N    12.20051941    19.96126705    12.15330839
   O    12.93632845    17.75379688    12.46484998
   H    10.13237254    19.00325610    12.82192920
   H    10.62851967    17.32837714    13.05910890
   H    11.36490151    20.48979013    12.09392382
   H    13.08326581    20.32807134    11.67012319
   C    15.13543436    16.66940375     9.92387889
   N    15.93977794    16.19185263     8.95719752
   N    15.38959226    17.98519809    10.18835595
   O    14.24210582    15.99668843    10.39673896
   H    15.92269181    15.23771140     8.90045695
   H    16.62558372    16.77022237     8.55950948
   H    14.75388406    18.32761173    10.86277643
   H    16.26404040    18.45912713     9.91506467
   C    16.85027227    19.50954158    13.39282535
   N    15.57370689    19.20625018    13.57515082
   N    17.65434512    18.42987424    13.70180723
   O    17.26622384    20.61578021    13.16875331
   H    15.01762491    20.00545839    13.79993853
   H    15.27214668    18.31684629    13.93351636
   H    17.26723196    17.55756739    13.96419830
   H    18.63825488    18.59548544    13.68419481
   C    12.51112236    10.32167427    12.74477572
   N    11.60433457    10.34345333    11.78369022
   N    12.64777584    11.50397147    13.40556203
   O    13.28390474     9.42033821    12.87473194
   H    11.37463441     9.56593258    11.27879776
   H    11.06035562    11.18492201    11.63952689
   H    13.43044650    11.62138493    14.00278068
   H    12.06906049    12.35881200    13.14791935
   C    19.24257839    12.85083927    14.47105701
   N    19.89571997    12.37584776    13.44070474
   N    19.57776395    14.13155109    14.70697956
   O    18.47048730    12.25343952    15.17239571
   H    20.64861256    12.92075717    13.08895774
   H    19.47480677    11.50254050    13.11562579
   H    19.18088151    14.57205363    15.56106064
   H    20.26859902    14.47169645    13.99953700
   C     8.50764310    15.52209878    15.13995581
   N     7.23383169    15.26852204    14.85615734
   N     8.82305082    15.87881355    16.41198373
   O     9.33011478    15.69299856    14.27713838
   H     6.89614414    14.90852350    13.98810132
   H     6.52439630    15.37889249    15.58723017
   H     8.09788884    15.97735208    17.06767192
   H     9.79388359    16.16733911    16.54407240
   C    17.43056629     8.94976659    14.75505576
   N    16.98517712     9.85986492    15.63855614
   N    16.53557590     7.95728312    14.58030962
   O    18.47871351     9.06653649    14.16621789
   H    16.06577737     9.73765738    15.91090869
   H    17.41823221    10.75161790    15.57747216
   H    15.67008340     8.05344091    14.94492856
   H    16.71993380     7.20328862    13.82745851
   C    12.10846122    19.28314368     8.59403145
   N    11.73599081    18.96281378     7.35077250
   N    11.96513785    18.28467372     9.49818390
   O    12.43976803    20.43279168     8.85525012
   H    11.62261844    19.64512522     6.63595646
   H    11.48662108    17.99849442     7.07048878
   H    12.25234719    18.31288843    10.51675750
   H    11.65020394    17.31359224     9.18775322
   C    14.66743501    22.17097719    11.62999017
   N    14.96830355    21.29019509    10.71610438
   N    15.73172313    22.74718821    12.22821733
   O    13.52921353    22.40082119    11.86132776
   H    15.95258320    21.12659927    10.55150381
   H    14.18645852    21.11351730    10.09258092
   H    15.58631969    23.45735377    12.88824695
   H    16.56315032    22.15777300    12.13792619
   C     6.81350012    14.99952921    11.84206746
   N     8.11243410    14.64985113    11.98325490
   N     6.21393206    14.35679914    10.80501463
   O     6.32507890    15.96012499    12.42564763
   H     8.74208967    15.13402926    12.56831078
   H     8.39983697    13.73326507    11.62718855
   H     6.70506845    13.60837334    10.38706041
   H     5.31139427    14.66846821    10.50162416
   C     8.45392864    17.94065858     9.39418764
   N     8.91661988    19.12474720     8.98074644
   N     8.97547934    17.56909053    10.57808064
   O     7.62562532    17.33342289     8.77129027
   H     9.47119430    19.75554245     9.56556991
   H     8.48624887    19.47572006     8.08950169
   H     9.71346000    18.13226216    10.89497942
   H     8.74447484    16.71741697    11.03433393
   C    18.83717035    20.34726835    10.28194392
   N    19.48521262    21.44542747     9.90138250
   N    19.69722953    19.27210263    10.46780199
   O    17.66703179    20.26435466    10.45869976
   H    20.48722161    21.29277706     9.64593400
   H    18.88720076    22.31204495    10.04587806
   H    19.28351778    18.41589241    10.87187748
   H    20.70620564    19.35863633    10.23150981
   C    10.16988100    15.66549456     7.29453939
   N     9.56754261    14.76704817     8.00830444
   N     9.54670121    15.77329370     6.06208204
   O    11.12422567    16.25231301     7.66888901
   H     8.73133619    14.28445618     7.70926368
   H     9.96172340    14.55387517     8.91796547
   H     8.88545573    15.03897621     5.82554472
   H     9.84834359    16.53830774     5.44542592
   C     8.40543682    11.15938234    10.23522604
   N     8.09655693    10.49833137    11.34050992
   N     9.33883167    10.46948425     9.52417566
   O     7.95971667    12.28189724     9.99610614
   H     7.58136343    11.03691951    11.98711830
   H     8.55934955     9.59657822    11.58177690
   H     9.75015392    10.97288933     8.82578640
   H     9.64698800     9.55436927     9.84724001
   C    20.95068671    20.14410476    14.05974126
   N    20.15655539    21.22861624    13.97260132
   N    22.25706762    20.51997779    14.30232829
   O    20.61040494    18.97962689    13.98549056
   H    19.21817001    21.11938387    13.63066986
   H    20.54794689    22.15386603    14.05152321
   H    22.52115883    21.46857369    14.32476621
   H    22.87743138    19.76724844    14.50186263
   C    22.53407349    15.29433329    13.27711246
   N    22.34095764    16.20765440    14.22765317
   N    23.84252778    15.34064066    12.88885517
   O    21.72270369    14.59050668    12.77270261
   H    23.12894777    16.77861517    14.45811543
   H    21.40795367    16.39404977    14.61816574
   H    24.13248945    14.65347571    12.23470801
   H    24.51776698    15.91862381    13.35409851
   C    23.61500181    16.07562140    17.38210516
   N    24.04734161    15.01713206    16.66217008
   N    22.49078752    15.66027871    18.02353933
   O    24.13970018    17.16109320    17.44292475
   H    24.72401729    15.29850890    15.99010427
   H    23.61394426    14.11433926    16.72134431
   H    21.95222651    16.35510828    18.48988761
   H    22.14477586    14.74310537    17.83830085
  Cl    13.43219338    20.53952124    16.60714911
  Cl    13.65487392    17.29108380    21.28808325
  Cl    16.65872983    17.38531649    20.88493367
  Cl     8.71441140    14.25907670    20.13068970
  Cl    14.84508894    19.48722845     6.58061098
  Cl    20.65380306    17.92573648    20.27442207
  Cl    10.30617554    11.90297117    21.95241900
  Cl    16.38449434    10.41015865    21.97678975
  Cl    15.35975447    20.07351852    23.06511264
  Cl    14.66901569    13.17062305    24.13588073
