68
MDStep55640000 without cholines
   C    14.49993730    16.92302907    12.85593743
   N    14.48387097    16.46142047    11.60297023
   N    13.29406075    17.03404180    13.43104943
   O    15.53382519    17.28849430    13.39602671
   H    13.65504974    16.20262690    11.19049122
   H    15.37869117    16.26913651    11.05796963
   H    12.52421788    16.58741834    13.06778032
   H    13.23470523    17.70701979    14.15953400
   C    13.89136176    13.09303046    14.12158243
   N    14.81485540    12.64231351    14.95450497
   N    14.22018472    12.73674764    12.85971875
   O    13.00946652    13.91882091    14.42683652
   H    15.44049522    11.96284690    14.55137170
   H    14.77496717    12.83138045    16.00979383
   H    15.05808080    12.24224908    12.59798793
   H    13.41542439    12.98125655    12.24224186
   C    11.00369264    16.05576972    16.74025175
   N    10.53248233    16.13708465    15.54141213
   N    12.02777873    15.22290561    16.91787044
   O    10.59466409    16.79550671    17.65783398
   H     9.63919419    16.52858921    15.31071207
   H    11.09121365    15.61547770    14.81783760
   H    12.29764975    14.98254719    17.85530367
   H    12.41811570    14.73159543    16.10130144
   C    11.45612637    14.37490728    11.13399349
   N    11.42177733    15.43264244    10.33577447
   N    10.91697109    14.63571972    12.32285299
   O    12.14057082    13.44571412    10.98977013
   H    11.69100310    15.16423556     9.41735928
   H    10.91027368    16.27313868    10.61014538
   H    11.40507034    14.14695258    13.03483821
   H    10.60215032    15.55094473    12.57597136
   C    18.81469544    14.84996826    13.09906538
   N    19.22157989    15.66593496    12.10584327
   N    17.54899543    14.37961949    12.96761476
   O    19.53593432    14.49275881    13.99513715
   H    18.61898954    16.03907341    11.38879549
   H    20.24941847    15.89285770    11.98809802
   H    17.25501925    13.65261306    13.54777684
   H    16.92817844    14.77306957    12.28924728
   C     9.97563956    18.34583038    12.60644736
   N    10.73740289    19.22271278    12.07069290
   N     9.32735026    18.85368925    13.67983072
   O     9.87107474    17.24873954    12.17785172
   H    10.98141968    20.06916978    12.46645583
   H    11.37627159    18.83082777    11.37020931
   H     9.48374443    19.87768819    13.83650829
   H     8.58145119    18.25306879    14.10994114
   C    16.80183766    18.29810485    10.40165332
   N    16.72968544    18.87561412    11.60233017
   N    16.65725596    19.17579611     9.37122943
   O    17.18371187    17.20461308    10.30122174
   H    16.48537630    19.84022739    11.59640990
   H    16.80716681    18.36697275    12.47028337
   H    16.63063539    20.15891396     9.55354943
   H    16.77123722    18.90664749     8.41042134
   C    16.73320071    10.07291387    11.89764248
   N    15.86597370     9.03328126    12.07931506
   N    17.77451689     9.60143843    11.14661249
   O    16.61109407    11.06927020    12.54073598
   H    16.02519592     8.08607913    11.70835592
   H    15.06045669     9.18035255    12.73087416
   H    17.80737019     8.61125511    10.99675338
   H    18.59411106    10.19532367    10.92998262
  Cl    17.14310143    11.46903812    17.68023474
  Cl    13.51020942    20.32661216    10.40699632
  Cl    16.28630381    18.10616528    20.99833960
  Cl    11.34507881     7.71410488    16.76113187
