110
MDStep49900000 without ureas
   N    18.78365324    19.83542501    12.18482894
   C    18.96245904    20.81962388    13.21336538
   C    20.07370161    19.13171337    11.87538336
   C    18.18117350    20.57409418    10.98221038
   C    17.75882074    18.82971465    12.85088959
   H    19.21008907    20.27982670    14.13101570
   H    17.96946205    21.28203085    13.38312181
   H    19.66367897    21.64274166    12.93708785
   H    20.75156593    19.77281389    11.36580849
   H    20.54512473    18.86511654    12.81467969
   H    19.85178500    18.29095998    11.20776815
   H    18.06285209    19.79370060    10.29818107
   H    18.92466884    21.32007024    10.62490124
   H    17.20797716    21.05395420    11.24053495
   C    17.35491733    17.71140475    11.89916289
   H    18.28176359    18.41909965    13.68244257
   H    16.81093489    19.26904541    13.19984444
   H    17.02915376    16.78281572    12.37208235
   H    18.13676561    17.30731672    11.25275785
   O    16.33440298    18.10777628    10.93389719
   H    16.15648853    17.20503917    10.46834255
   N    16.86265887    13.65504747    18.71358133
   C    17.44166040    12.91745286    19.85855844
   C    15.52899317    13.10725407    18.34385452
   C    17.77049296    13.43318016    17.55364421
   C    16.62202535    15.13985081    19.14874832
   H    18.16183055    13.48175823    20.30908297
   H    16.71207442    12.64608523    20.60679692
   H    17.86540523    11.93995910    19.46339148
   H    15.53523539    12.11204641    18.04269970
   H    15.20401168    13.77953494    17.51727402
   H    14.75298577    13.25260320    19.18451577
   H    18.76787777    13.73050393    17.77868419
   H    17.44278024    14.04995026    16.74121014
   H    17.70140536    12.32425042    17.28787233
   C    17.83049745    15.91149665    19.60201049
   H    16.25835402    15.64699557    18.30813889
   H    15.75770391    15.15486556    19.84033752
   H    18.24001882    15.61044043    20.50389347
   H    18.52184686    15.90609206    18.77793272
   O    17.40642510    17.22032091    19.90606464
   H    16.57345259    17.05136831    20.39873392
   N    12.78669161    22.55473457    12.62842174
   C    13.12744416    23.42890202    11.48228802
   C    13.99899741    21.86606083    13.20714167
   C    12.18798645    23.58392912    13.59493306
   C    11.71189236    21.53571235    12.21093728
   H    12.38798133    24.15340356    11.11984038
   H    14.03899068    24.03601570    11.74192563
   H    13.38061310    22.76707880    10.60519982
   C    14.80359591    21.01656957    12.20369882
   H    13.57898895    21.18950411    14.00459964
   H    14.78416733    22.55656781    13.65455356
   H    11.52308507    24.21923617    13.07780674
   H    11.62475867    23.18617020    14.45063360
   H    13.03050786    24.17289628    13.98947224
   H    12.11536958    20.72438609    11.62177695
   H    11.33535487    21.16529427    13.15825594
   H    10.87974971    21.99556440    11.64414594
   H    14.70549995    21.38202420    11.18986932
   H    15.85244743    21.10507693    12.51178063
   O    14.45098043    19.64774317    12.29147463
   H    15.19879558    19.13098636    11.90803710
   N    19.61268220    15.50528598    14.96581681
   C    18.99063330    14.45298003    14.09732449
   C    18.38863121    16.22550884    15.50825394
   C    20.35670273    16.48097111    14.06509161
   C    20.66956380    14.96265751    15.98792153
   H    18.48197235    13.65121724    14.61620800
   H    18.34933690    14.96316655    13.38551341
   H    19.82717331    13.94150661    13.55948603
   H    17.88649792    15.51079286    16.08567450
   H    18.86614016    17.02004891    16.06070846
   H    17.89603269    16.70063444    14.63281136
   H    21.13291422    15.96495779    13.52032154
   H    20.86923579    17.24940117    14.67240523
   H    19.62084568    17.00945528    13.41093944
   C    21.80057285    14.07969627    15.44599728
   H    20.05383334    14.44269196    16.70095326
   H    21.11164326    15.84342392    16.44339538
   H    21.45929963    13.65551139    14.56640673
   H    22.66482386    14.80908320    15.25938182
   O    22.11978397    13.17350172    16.49770492
   H    22.45301946    13.65121034    17.30495980
   N    11.86348759    17.88908502     8.21898923
   C    11.59377497    18.99462917     7.26009246
   C    12.27320215    18.39978620     9.61585048
   C    10.53680861    17.09408586     8.32929325
   C    13.02372954    16.99905941     7.65419190
   H    10.73021616    19.49839345     7.64908191
   H    12.48275653    19.64069606     7.26386446
   H    11.20633048    18.60129549     6.27765636
   H    12.64712569    17.57605383    10.20551043
   H    11.45267937    18.88751140    10.15895937
   H    13.17776469    19.08028086     9.52058472
   C    10.38245642    16.13044030     9.56757220
   H     9.73234771    17.73755825     8.21767743
   H    10.54083761    16.47207730     7.40902163
   H    13.36291541    16.57719913     8.55222965
   H    13.70444855    17.77687071     7.25844042
   H    12.47679486    16.32562860     6.94166981
   H     9.91671373    15.18330475     9.24216583
   H    11.40696282    15.67669769     9.84085566
   O     9.71691474    16.57103447    10.71441571
   H    10.32711930    17.14262287    11.27459912
  Cl    15.26049541    20.01216237     8.47052189
  Cl    16.45789504    19.37842171    22.22014508
  Cl    13.15443460    12.41701710    22.08465957
  Cl    16.13042028    16.10599288    23.27788622
  Cl     6.82308363    12.70807710    16.34309532
