152
MDStep55640000 9/9 motifs
   C    14.49993730    16.92302907    12.85593743
   N    14.48387097    16.46142047    11.60297023
   N    13.29406075    17.03404180    13.43104943
   O    15.53382519    17.28849430    13.39602671
   H    13.65504974    16.20262690    11.19049122
   H    15.37869117    16.26913651    11.05796963
   H    12.52421788    16.58741834    13.06778032
   H    13.23470523    17.70701979    14.15953400
   C    13.89136176    13.09303046    14.12158243
   N    14.81485540    12.64231351    14.95450497
   N    14.22018472    12.73674764    12.85971875
   O    13.00946652    13.91882091    14.42683652
   H    15.44049522    11.96284690    14.55137170
   H    14.77496717    12.83138045    16.00979383
   H    15.05808080    12.24224908    12.59798793
   H    13.41542439    12.98125655    12.24224186
   C    11.00369264    16.05576972    16.74025175
   N    10.53248233    16.13708465    15.54141213
   N    12.02777873    15.22290561    16.91787044
   O    10.59466409    16.79550671    17.65783398
   H     9.63919419    16.52858921    15.31071207
   H    11.09121365    15.61547770    14.81783760
   H    12.29764975    14.98254719    17.85530367
   H    12.41811570    14.73159543    16.10130144
   C    11.45612637    14.37490728    11.13399349
   N    11.42177733    15.43264244    10.33577447
   N    10.91697109    14.63571972    12.32285299
   O    12.14057082    13.44571412    10.98977013
   H    11.69100310    15.16423556     9.41735928
   H    10.91027368    16.27313868    10.61014538
   H    11.40507034    14.14695258    13.03483821
   H    10.60215032    15.55094473    12.57597136
   C    18.81469544    14.84996826    13.09906538
   N    19.22157989    15.66593496    12.10584327
   N    17.54899543    14.37961949    12.96761476
   O    19.53593432    14.49275881    13.99513715
   H    18.61898954    16.03907341    11.38879549
   H    20.24941847    15.89285770    11.98809802
   H    17.25501925    13.65261306    13.54777684
   H    16.92817844    14.77306957    12.28924728
   C     9.97563956    18.34583038    12.60644736
   N    10.73740289    19.22271278    12.07069290
   N     9.32735026    18.85368925    13.67983072
   O     9.87107474    17.24873954    12.17785172
   H    10.98141968    20.06916978    12.46645583
   H    11.37627159    18.83082777    11.37020931
   H     9.48374443    19.87768819    13.83650829
   H     8.58145119    18.25306879    14.10994114
   C    16.80183766    18.29810485    10.40165332
   N    16.72968544    18.87561412    11.60233017
   N    16.65725596    19.17579611     9.37122943
   O    17.18371187    17.20461308    10.30122174
   H    16.48537630    19.84022739    11.59640990
   H    16.80716681    18.36697275    12.47028337
   H    16.63063539    20.15891396     9.55354943
   H    16.77123722    18.90664749     8.41042134
   C    16.73320071    10.07291387    11.89764248
   N    15.86597370     9.03328126    12.07931506
   N    17.77451689     9.60143843    11.14661249
   O    16.61109407    11.06927020    12.54073598
   H    16.02519592     8.08607913    11.70835592
   H    15.06045669     9.18035255    12.73087416
   H    17.80737019     8.61125511    10.99675338
   H    18.59411106    10.19532367    10.92998262
   N    16.25869377    15.69663764    17.30757297
   C    17.19398338    14.70743680    16.79400089
   C    15.80508311    15.35135961    18.71380534
   C    17.02426606    17.01109305    17.32320136
   C    15.08144495    15.79469339    16.32639068
   H    17.78519755    14.49601951    17.70032168
   H    16.63268517    13.79221784    16.49250564
   H    17.84877630    15.22412730    16.00714338
   H    15.24585938    16.17474246    19.01672442
   H    15.27745452    14.42027457    18.70323531
   H    16.76385159    15.30912066    19.28754134
   C    17.40868898    17.57531715    15.97054417
   H    16.27888327    17.61829585    17.83127959
   H    17.95743072    17.00269197    17.91074349
   H    15.40423828    16.10629183    15.35972617
   H    14.30147400    16.44886649    16.76387888
   H    14.75872040    14.73208121    16.18087855
   H    18.33706928    18.05004308    16.17323401
   H    17.60929081    16.90659005    15.15599754
   O    16.43378132    18.54618055    15.57098201
   H    15.98912614    18.08064430    14.80944002
   N    13.05274988    20.25543667    16.70509619
   C    12.84634635    20.32072281    15.21535959
   C    13.32864956    21.64314719    17.23042337
   C    11.73210867    19.89076603    17.37872760
   C    14.23438180    19.38292711    17.25713659
   C    13.89370325    20.76316301    14.23195307
   H    12.56815059    19.28389350    14.90297794
   H    11.87336708    20.86761682    15.06386304
   H    12.56974726    22.34225127    16.89921385
   H    13.17417201    21.61077969    18.31006917
   H    14.41100847    21.88523666    16.97158193
   H    11.06343228    20.71362136    17.19230515
   H    11.42051248    18.92962605    16.98120261
   H    11.70955509    19.77020031    18.48891321
   H    15.07502653    19.78118220    16.74660570
   H    14.28158440    19.55563746    18.31419198
   H    14.04257215    18.28281303    17.14654371
   H    13.71619324    20.32890079    13.22521466
   H    14.95049328    20.42974781    14.48893905
   O    13.79161257    22.15955712    14.13019003
   H    13.66721320    22.47001506    15.01438805
   N    11.43217276    13.50577111    20.46222840
   C    11.72228865    14.66344306    21.42607287
   C    12.67145240    13.28007740    19.55967047
   C    10.22668977    13.75375429    19.51166890
   C    11.11731656    12.13173335    21.17582124
   H    12.14172693    15.47229670    20.79322402
   H    12.30821866    14.32239520    22.31134015
   H    10.73050551    15.06632942    21.83863546
   C    12.61558064    12.36361328    18.35781556
   H    13.45974178    12.92452902    20.19441004
   H    12.84676985    14.30527124    19.17986389
   H    10.08541678    12.86277313    18.93268001
   H     9.32230321    14.12623426    20.05144946
   H    10.47228913    14.58578971    18.79299116
   H    10.09961109    12.16728373    21.50299903
   H    11.18365569    11.25071627    20.55371243
   H    11.82217984    12.10728846    22.03497172
   H    12.13756479    12.89227040    17.53523545
   H    11.97572009    11.47583913    18.54874908
   O    13.88838074    11.85091236    18.02543398
   H    14.03205887    10.94701370    18.40332544
   N    15.83989754    11.88406309     8.22368845
   C    15.60821956    12.81734111     7.11002923
   C    15.08692905    10.58084726     8.10176627
   C    15.49872348    12.54081728     9.56773809
   C    17.35228789    11.59125300     8.23394944
   H    15.94370457    12.25609771     6.23712312
   H    16.17319839    13.74757303     7.25755668
   H    14.51963620    12.91508993     6.96798339
   H    15.28473774     9.85857671     8.87753248
   H    14.01600691    10.73915990     8.07138934
   H    15.34001622    10.11701960     7.07227763
   C    16.29146278    13.74951697    10.11116741
   H    14.44562299    12.80392142     9.49665259
   H    15.68516957    11.79222062    10.36153556
   H    17.81741997    12.57196726     8.27838968
   H    17.69316086    11.10397650     7.28063969
   H    17.75113900    11.02218201     9.15983984
   H    15.89522573    14.06398509    11.05381424
   H    17.37997876    13.48593242    10.27502263
   O    16.28955551    14.88441228     9.29651206
   H    16.92721687    15.51951203     9.66801212
  Cl    17.14310143    11.46903812    17.68023474
  Cl    13.51020942    20.32661216    10.40699632
  Cl    16.28630381    18.10616528    20.99833960
  Cl    11.34507881     7.71410488    16.76113187
